; benchmark generated from python API
(set-info :status unknown)
(declare-fun ocupaf_0_0_1_0 () Bool)
(declare-fun ocupaf_0_0_0_1 () Bool)
(declare-fun ocupaf_0_1_1_0 () Bool)
(declare-fun ocupaf_0_1_0_1 () Bool)
(declare-fun ocupav_1_0_1_0 () Bool)
(declare-fun ocupav_1_0_0_1 () Bool)
(declare-fun ocupaf_1_0_0_0 () Bool)
(declare-fun ocupav_1_0_1_1 () Bool)
(declare-fun ocupaf_1_0_0_1 () Bool)
(declare-fun ocupaf_1_0_1_0 () Bool)
(declare-fun ocupav_1_1_1_0 () Bool)
(declare-fun ocupav_1_1_0_1 () Bool)
(declare-fun ocupaf_1_1_0_0 () Bool)
(declare-fun ocupav_1_1_1_1 () Bool)
(declare-fun ocupaf_1_1_0_1 () Bool)
(declare-fun ocupaf_1_1_1_0 () Bool)
(declare-fun ocupaf_0_0_0_0 () Bool)
(declare-fun ocupaf_0_0_1_1 () Bool)
(declare-fun ocupaf_0_1_1_1 () Bool)
(declare-fun ocupaf_0_1_0_0 () Bool)
(declare-fun x_0_1 () Bool)
(declare-fun x_0_0 () Bool)
(declare-fun ocupav_1_0_0_0 () Bool)
(declare-fun ocupaf_1_0_1_1 () Bool)
(declare-fun ocupaf_1_1_1_1 () Bool)
(declare-fun ocupav_1_1_0_0 () Bool)
(declare-fun x_1_1 () Bool)
(declare-fun x_1_0 () Bool)
(declare-fun var_0_0_0 () Int)
(declare-fun var_0_1_0 () Int)
(declare-fun var_1_0_0 () Int)
(declare-fun var_1_1_0 () Int)
(declare-fun ocupamv_0_1_0 () Bool)
(declare-fun ocupamv_0_0_1 () Bool)
(declare-fun ocupamf_0_0 () Bool)
(declare-fun ocupamv_0_1_1 () Bool)
(declare-fun ocupamf_0_1 () Bool)
(declare-fun ocupamv_0_0_0 () Bool)
(declare-fun cuenta_0_0 () Bool)
(declare-fun cuenta_0_1 () Bool)
(declare-fun cuenta_1_0 () Bool)
(declare-fun cuenta_1_1 () Bool)
(assert
 (let (($x33 (not ocupaf_0_0_1_0)))
 (=> ocupaf_0_0_0_1 $x33)))
(assert
 (let (($x54 (not ocupaf_0_1_1_0)))
 (=> ocupaf_0_1_0_1 $x54)))
(assert
 (let (($x58 (not ocupav_1_0_1_0)))
 (=> ocupav_1_0_0_1 $x58)))
(assert
 (let (($x58 (not ocupav_1_0_1_0)))
 (=> ocupaf_1_0_0_0 $x58)))
(assert
 (let (($x65 (not ocupav_1_0_1_1)))
 (=> ocupaf_1_0_0_0 $x65)))
(assert
 (let (($x58 (not ocupav_1_0_1_0)))
 (=> ocupaf_1_0_0_1 $x58)))
(assert
 (let (($x65 (not ocupav_1_0_1_1)))
 (=> ocupaf_1_0_0_1 $x65)))
(assert
 (let (($x73 (not ocupaf_1_0_1_0)))
 (=> ocupaf_1_0_0_1 $x73)))
(assert
 (let (($x76 (not ocupav_1_1_1_0)))
 (=> ocupav_1_1_0_1 $x76)))
(assert
 (let (($x76 (not ocupav_1_1_1_0)))
 (=> ocupaf_1_1_0_0 $x76)))
(assert
 (let (($x83 (not ocupav_1_1_1_1)))
 (=> ocupaf_1_1_0_0 $x83)))
(assert
 (let (($x76 (not ocupav_1_1_1_0)))
 (=> ocupaf_1_1_0_1 $x76)))
(assert
 (let (($x83 (not ocupav_1_1_1_1)))
 (=> ocupaf_1_1_0_1 $x83)))
(assert
 (let (($x91 (not ocupaf_1_1_1_0)))
 (=> ocupaf_1_1_0_1 $x91)))
(assert
 (let ((?x99 (ite ocupaf_0_0_0_1 1 0)))
 (let ((?x98 (ite ocupaf_0_0_0_0 1 0)))
 (let ((?x100 (+ ?x98 ?x99)))
 (<= ?x100 1)))))
(assert
 (let ((?x103 (ite ocupaf_0_0_1_1 1 0)))
 (let ((?x102 (ite ocupaf_0_0_1_0 1 0)))
 (let ((?x105 (+ ?x102 ?x103)))
 (let (($x106 (= ?x105 0)))
 (let ((?x99 (ite ocupaf_0_0_0_1 1 0)))
 (let ((?x98 (ite ocupaf_0_0_0_0 1 0)))
 (let ((?x100 (+ ?x98 ?x99)))
 (let (($x104 (= ?x100 0)))
 (=> $x104 $x106))))))))))
(assert
 (let ((?x103 (ite ocupaf_0_0_1_1 1 0)))
 (let ((?x102 (ite ocupaf_0_0_1_0 1 0)))
 (let ((?x105 (+ ?x102 ?x103)))
 (<= ?x105 1)))))
(assert
 (let ((?x103 (ite ocupaf_0_0_1_1 1 0)))
 (let ((?x102 (ite ocupaf_0_0_1_0 1 0)))
 (let ((?x105 (+ ?x102 ?x103)))
 (let (($x106 (= ?x105 0)))
 (let ((?x99 (ite ocupaf_0_0_0_1 1 0)))
 (let ((?x98 (ite ocupaf_0_0_0_0 1 0)))
 (let ((?x100 (+ ?x98 ?x99)))
 (let (($x104 (= ?x100 0)))
 (=> $x104 $x106))))))))))
(assert
 (let ((?x103 (ite ocupaf_0_0_1_1 1 0)))
 (let ((?x110 (ite ocupaf_0_0_1_0 2 0)))
 (let ((?x113 (+ (+ (ite ocupaf_0_0_0_0 2 0) (ite ocupaf_0_0_0_1 1 0)) ?x110)))
 (let ((?x114 (+ ?x113 ?x103)))
 (<= ?x114 2))))))
(assert
 (let ((?x103 (ite ocupaf_0_0_1_1 1 0)))
 (let ((?x102 (ite ocupaf_0_0_1_0 1 0)))
 (let ((?x105 (+ ?x102 ?x103)))
 (let ((?x99 (ite ocupaf_0_0_0_1 1 0)))
 (let ((?x98 (ite ocupaf_0_0_0_0 1 0)))
 (let ((?x100 (+ ?x98 ?x99)))
 (> (+ ?x100 ?x105) 1))))))))
(assert
 (let ((?x131 (ite ocupaf_0_1_1_1 1 0)))
 (let ((?x130 (ite ocupaf_0_1_0_1 1 0)))
 (let ((?x132 (+ ?x130 ?x131)))
 (let ((?x103 (ite ocupaf_0_0_1_1 1 0)))
 (let ((?x99 (ite ocupaf_0_0_0_1 1 0)))
 (let ((?x129 (+ ?x99 ?x103)))
 (let ((?x134 (ite (and (distinct ?x129 ?x132) true) 1 0)))
 (let ((?x125 (ite ocupaf_0_1_1_0 1 0)))
 (let ((?x124 (ite ocupaf_0_1_0_0 1 0)))
 (let ((?x126 (+ ?x124 ?x125)))
 (let ((?x102 (ite ocupaf_0_0_1_0 1 0)))
 (let ((?x98 (ite ocupaf_0_0_0_0 1 0)))
 (let ((?x123 (+ ?x98 ?x102)))
 (let ((?x128 (ite (and (distinct ?x123 ?x126) true) 1 0)))
 (let (($x135 (and x_0_0 x_0_1)))
 (=> $x135 (> (+ ?x128 ?x134) 0))))))))))))))))))
(assert
 (let ((?x130 (ite ocupaf_0_1_0_1 1 0)))
 (let ((?x124 (ite ocupaf_0_1_0_0 1 0)))
 (let ((?x162 (+ ?x124 ?x130)))
 (<= ?x162 1)))))
(assert
 (let ((?x131 (ite ocupaf_0_1_1_1 1 0)))
 (let ((?x125 (ite ocupaf_0_1_1_0 1 0)))
 (let ((?x165 (+ ?x125 ?x131)))
 (let (($x166 (= ?x165 0)))
 (let ((?x130 (ite ocupaf_0_1_0_1 1 0)))
 (let ((?x124 (ite ocupaf_0_1_0_0 1 0)))
 (let ((?x162 (+ ?x124 ?x130)))
 (let (($x164 (= ?x162 0)))
 (=> $x164 $x166))))))))))
(assert
 (let ((?x131 (ite ocupaf_0_1_1_1 1 0)))
 (let ((?x125 (ite ocupaf_0_1_1_0 1 0)))
 (let ((?x165 (+ ?x125 ?x131)))
 (<= ?x165 1)))))
(assert
 (let ((?x131 (ite ocupaf_0_1_1_1 1 0)))
 (let ((?x125 (ite ocupaf_0_1_1_0 1 0)))
 (let ((?x165 (+ ?x125 ?x131)))
 (let (($x166 (= ?x165 0)))
 (let ((?x130 (ite ocupaf_0_1_0_1 1 0)))
 (let ((?x124 (ite ocupaf_0_1_0_0 1 0)))
 (let ((?x162 (+ ?x124 ?x130)))
 (let (($x164 (= ?x162 0)))
 (=> $x164 $x166))))))))))
(assert
 (let ((?x131 (ite ocupaf_0_1_1_1 1 0)))
 (let ((?x170 (ite ocupaf_0_1_1_0 2 0)))
 (let ((?x173 (+ (+ (ite ocupaf_0_1_0_0 2 0) (ite ocupaf_0_1_0_1 1 0)) ?x170)))
 (let ((?x174 (+ ?x173 ?x131)))
 (<= ?x174 2))))))
(assert
 (let ((?x131 (ite ocupaf_0_1_1_1 1 0)))
 (let ((?x125 (ite ocupaf_0_1_1_0 1 0)))
 (let ((?x165 (+ ?x125 ?x131)))
 (let ((?x130 (ite ocupaf_0_1_0_1 1 0)))
 (let ((?x124 (ite ocupaf_0_1_0_0 1 0)))
 (let ((?x162 (+ ?x124 ?x130)))
 (> (+ ?x162 ?x165) 1))))))))
(assert
 (let ((?x131 (ite ocupaf_0_1_1_1 1 0)))
 (let ((?x130 (ite ocupaf_0_1_0_1 1 0)))
 (let ((?x132 (+ ?x130 ?x131)))
 (let ((?x103 (ite ocupaf_0_0_1_1 1 0)))
 (let ((?x99 (ite ocupaf_0_0_0_1 1 0)))
 (let ((?x129 (+ ?x99 ?x103)))
 (let ((?x134 (ite (and (distinct ?x129 ?x132) true) 1 0)))
 (let ((?x125 (ite ocupaf_0_1_1_0 1 0)))
 (let ((?x124 (ite ocupaf_0_1_0_0 1 0)))
 (let ((?x126 (+ ?x124 ?x125)))
 (let ((?x102 (ite ocupaf_0_0_1_0 1 0)))
 (let ((?x98 (ite ocupaf_0_0_0_0 1 0)))
 (let ((?x123 (+ ?x98 ?x102)))
 (let ((?x128 (ite (and (distinct ?x123 ?x126) true) 1 0)))
 (let (($x135 (and x_0_0 x_0_1)))
 (=> $x135 (> (+ ?x128 ?x134) 0))))))))))))))))))
(assert
 (=> ocupav_1_0_0_0 x_0_0))
(assert
 (=> ocupav_1_0_0_1 x_0_1))
(assert
 (let ((?x192 (ite ocupaf_1_0_0_1 1 0)))
 (let ((?x191 (ite ocupaf_1_0_0_0 1 0)))
 (let ((?x189 (ite ocupav_1_0_0_1 1 0)))
 (let ((?x186 (ite ocupav_1_0_0_0 1 0)))
 (let ((?x193 (+ ?x186 ?x189)))
 (let ((?x195 (+ (+ ?x193 ?x191) ?x192)))
 (<= ?x195 1))))))))
(assert
 (let ((?x202 (ite ocupaf_1_0_1_1 1 0)))
 (let ((?x201 (ite ocupaf_1_0_1_0 1 0)))
 (let ((?x205 (+ (+ (ite ocupav_1_0_1_0 1 0) (ite ocupav_1_0_1_1 1 0)) ?x201)))
 (let ((?x206 (+ ?x205 ?x202)))
 (let ((?x192 (ite ocupaf_1_0_0_1 1 0)))
 (let ((?x191 (ite ocupaf_1_0_0_0 1 0)))
 (let ((?x189 (ite ocupav_1_0_0_1 1 0)))
 (let ((?x186 (ite ocupav_1_0_0_0 1 0)))
 (let ((?x193 (+ ?x186 ?x189)))
 (let ((?x195 (+ (+ ?x193 ?x191) ?x192)))
 (=> (= ?x195 0) (= ?x206 0)))))))))))))
(assert
 (=> ocupav_1_0_1_0 x_0_0))
(assert
 (=> ocupav_1_0_1_1 x_0_1))
(assert
 (let ((?x202 (ite ocupaf_1_0_1_1 1 0)))
 (let ((?x201 (ite ocupaf_1_0_1_0 1 0)))
 (let ((?x205 (+ (+ (ite ocupav_1_0_1_0 1 0) (ite ocupav_1_0_1_1 1 0)) ?x201)))
 (let ((?x206 (+ ?x205 ?x202)))
 (<= ?x206 1))))))
(assert
 (let ((?x202 (ite ocupaf_1_0_1_1 1 0)))
 (let ((?x201 (ite ocupaf_1_0_1_0 1 0)))
 (let ((?x205 (+ (+ (ite ocupav_1_0_1_0 1 0) (ite ocupav_1_0_1_1 1 0)) ?x201)))
 (let ((?x206 (+ ?x205 ?x202)))
 (let ((?x192 (ite ocupaf_1_0_0_1 1 0)))
 (let ((?x191 (ite ocupaf_1_0_0_0 1 0)))
 (let ((?x189 (ite ocupav_1_0_0_1 1 0)))
 (let ((?x186 (ite ocupav_1_0_0_0 1 0)))
 (let ((?x193 (+ ?x186 ?x189)))
 (let ((?x195 (+ (+ ?x193 ?x191) ?x192)))
 (=> (= ?x195 0) (= ?x206 0)))))))))))))
(assert
 (let ((?x202 (ite ocupaf_1_0_1_1 1 0)))
 (let ((?x218 (ite ocupaf_1_0_1_0 2 0)))
 (let ((?x200 (ite ocupav_1_0_1_1 1 0)))
 (let ((?x199 (ite ocupav_1_0_1_0 1 0)))
 (let ((?x192 (ite ocupaf_1_0_0_1 1 0)))
 (let ((?x190 (ite ocupaf_1_0_0_0 2 0)))
 (let ((?x189 (ite ocupav_1_0_0_1 1 0)))
 (let ((?x186 (ite ocupav_1_0_0_0 1 0)))
 (let ((?x193 (+ ?x186 ?x189)))
 (<= (+ (+ (+ (+ (+ (+ ?x193 ?x190) ?x192) ?x199) ?x200) ?x218) ?x202) 2)))))))))))
(assert
 (let ((?x202 (ite ocupaf_1_0_1_1 1 0)))
 (let ((?x201 (ite ocupaf_1_0_1_0 1 0)))
 (let ((?x205 (+ (+ (ite ocupav_1_0_1_0 1 0) (ite ocupav_1_0_1_1 1 0)) ?x201)))
 (let ((?x206 (+ ?x205 ?x202)))
 (let ((?x192 (ite ocupaf_1_0_0_1 1 0)))
 (let ((?x191 (ite ocupaf_1_0_0_0 1 0)))
 (let ((?x189 (ite ocupav_1_0_0_1 1 0)))
 (let ((?x186 (ite ocupav_1_0_0_0 1 0)))
 (let ((?x193 (+ ?x186 ?x189)))
 (let ((?x195 (+ (+ ?x193 ?x191) ?x192)))
 (> (+ ?x195 ?x206) 1))))))))))))
(assert
 (let ((?x255 (ite ocupaf_1_1_1_1 1 0)))
 (let ((?x254 (ite ocupaf_1_1_0_1 1 0)))
 (let ((?x256 (+ ?x254 ?x255)))
 (let ((?x202 (ite ocupaf_1_0_1_1 1 0)))
 (let ((?x192 (ite ocupaf_1_0_0_1 1 0)))
 (let ((?x253 (+ ?x192 ?x202)))
 (let ((?x258 (ite (and (distinct ?x253 ?x256) true) 1 0)))
 (let ((?x249 (ite ocupaf_1_1_1_0 1 0)))
 (let ((?x248 (ite ocupaf_1_1_0_0 1 0)))
 (let ((?x250 (+ ?x248 ?x249)))
 (let ((?x201 (ite ocupaf_1_0_1_0 1 0)))
 (let ((?x191 (ite ocupaf_1_0_0_0 1 0)))
 (let ((?x247 (+ ?x191 ?x201)))
 (let ((?x252 (ite (and (distinct ?x247 ?x250) true) 1 0)))
 (let ((?x243 (ite ocupav_1_1_1_1 1 0)))
 (let ((?x242 (ite ocupav_1_1_0_1 1 0)))
 (let ((?x244 (+ ?x242 ?x243)))
 (let ((?x200 (ite ocupav_1_0_1_1 1 0)))
 (let ((?x189 (ite ocupav_1_0_0_1 1 0)))
 (let ((?x241 (+ ?x189 ?x200)))
 (let ((?x246 (ite (and (distinct ?x241 ?x244) true) 1 0)))
 (let ((?x237 (ite ocupav_1_1_1_0 1 0)))
 (let ((?x236 (ite ocupav_1_1_0_0 1 0)))
 (let ((?x238 (+ ?x236 ?x237)))
 (let ((?x199 (ite ocupav_1_0_1_0 1 0)))
 (let ((?x186 (ite ocupav_1_0_0_0 1 0)))
 (let ((?x235 (+ ?x186 ?x199)))
 (let ((?x240 (ite (and (distinct ?x235 ?x238) true) 1 0)))
 (let (($x259 (and x_1_0 x_1_1)))
 (=> $x259 (> (+ (+ (+ ?x240 ?x246) ?x252) ?x258) 0))))))))))))))))))))))))))))))))
(assert
 (=> ocupav_1_1_0_0 x_0_0))
(assert
 (=> ocupav_1_1_0_1 x_0_1))
(assert
 (let ((?x254 (ite ocupaf_1_1_0_1 1 0)))
 (let ((?x248 (ite ocupaf_1_1_0_0 1 0)))
 (let ((?x242 (ite ocupav_1_1_0_1 1 0)))
 (let ((?x236 (ite ocupav_1_1_0_0 1 0)))
 (let ((?x308 (+ ?x236 ?x242)))
 (let ((?x310 (+ (+ ?x308 ?x248) ?x254)))
 (<= ?x310 1))))))))
(assert
 (let ((?x255 (ite ocupaf_1_1_1_1 1 0)))
 (let ((?x249 (ite ocupaf_1_1_1_0 1 0)))
 (let ((?x316 (+ (+ (ite ocupav_1_1_1_0 1 0) (ite ocupav_1_1_1_1 1 0)) ?x249)))
 (let ((?x317 (+ ?x316 ?x255)))
 (let ((?x254 (ite ocupaf_1_1_0_1 1 0)))
 (let ((?x248 (ite ocupaf_1_1_0_0 1 0)))
 (let ((?x242 (ite ocupav_1_1_0_1 1 0)))
 (let ((?x236 (ite ocupav_1_1_0_0 1 0)))
 (let ((?x308 (+ ?x236 ?x242)))
 (let ((?x310 (+ (+ ?x308 ?x248) ?x254)))
 (=> (= ?x310 0) (= ?x317 0)))))))))))))
(assert
 (=> ocupav_1_1_1_0 x_0_0))
(assert
 (=> ocupav_1_1_1_1 x_0_1))
(assert
 (let ((?x255 (ite ocupaf_1_1_1_1 1 0)))
 (let ((?x249 (ite ocupaf_1_1_1_0 1 0)))
 (let ((?x316 (+ (+ (ite ocupav_1_1_1_0 1 0) (ite ocupav_1_1_1_1 1 0)) ?x249)))
 (let ((?x317 (+ ?x316 ?x255)))
 (<= ?x317 1))))))
(assert
 (let ((?x255 (ite ocupaf_1_1_1_1 1 0)))
 (let ((?x249 (ite ocupaf_1_1_1_0 1 0)))
 (let ((?x316 (+ (+ (ite ocupav_1_1_1_0 1 0) (ite ocupav_1_1_1_1 1 0)) ?x249)))
 (let ((?x317 (+ ?x316 ?x255)))
 (let ((?x254 (ite ocupaf_1_1_0_1 1 0)))
 (let ((?x248 (ite ocupaf_1_1_0_0 1 0)))
 (let ((?x242 (ite ocupav_1_1_0_1 1 0)))
 (let ((?x236 (ite ocupav_1_1_0_0 1 0)))
 (let ((?x308 (+ ?x236 ?x242)))
 (let ((?x310 (+ (+ ?x308 ?x248) ?x254)))
 (=> (= ?x310 0) (= ?x317 0)))))))))))))
(assert
 (let ((?x255 (ite ocupaf_1_1_1_1 1 0)))
 (let ((?x329 (ite ocupaf_1_1_1_0 2 0)))
 (let ((?x243 (ite ocupav_1_1_1_1 1 0)))
 (let ((?x237 (ite ocupav_1_1_1_0 1 0)))
 (let ((?x254 (ite ocupaf_1_1_0_1 1 0)))
 (let ((?x307 (ite ocupaf_1_1_0_0 2 0)))
 (let ((?x242 (ite ocupav_1_1_0_1 1 0)))
 (let ((?x236 (ite ocupav_1_1_0_0 1 0)))
 (let ((?x308 (+ ?x236 ?x242)))
 (<= (+ (+ (+ (+ (+ (+ ?x308 ?x307) ?x254) ?x237) ?x243) ?x329) ?x255) 2)))))))))))
(assert
 (let ((?x255 (ite ocupaf_1_1_1_1 1 0)))
 (let ((?x249 (ite ocupaf_1_1_1_0 1 0)))
 (let ((?x316 (+ (+ (ite ocupav_1_1_1_0 1 0) (ite ocupav_1_1_1_1 1 0)) ?x249)))
 (let ((?x317 (+ ?x316 ?x255)))
 (let ((?x254 (ite ocupaf_1_1_0_1 1 0)))
 (let ((?x248 (ite ocupaf_1_1_0_0 1 0)))
 (let ((?x242 (ite ocupav_1_1_0_1 1 0)))
 (let ((?x236 (ite ocupav_1_1_0_0 1 0)))
 (let ((?x308 (+ ?x236 ?x242)))
 (let ((?x310 (+ (+ ?x308 ?x248) ?x254)))
 (> (+ ?x310 ?x317) 1))))))))))))
(assert
 (let ((?x255 (ite ocupaf_1_1_1_1 1 0)))
 (let ((?x254 (ite ocupaf_1_1_0_1 1 0)))
 (let ((?x256 (+ ?x254 ?x255)))
 (let ((?x202 (ite ocupaf_1_0_1_1 1 0)))
 (let ((?x192 (ite ocupaf_1_0_0_1 1 0)))
 (let ((?x253 (+ ?x192 ?x202)))
 (let ((?x258 (ite (and (distinct ?x253 ?x256) true) 1 0)))
 (let ((?x249 (ite ocupaf_1_1_1_0 1 0)))
 (let ((?x248 (ite ocupaf_1_1_0_0 1 0)))
 (let ((?x250 (+ ?x248 ?x249)))
 (let ((?x201 (ite ocupaf_1_0_1_0 1 0)))
 (let ((?x191 (ite ocupaf_1_0_0_0 1 0)))
 (let ((?x247 (+ ?x191 ?x201)))
 (let ((?x252 (ite (and (distinct ?x247 ?x250) true) 1 0)))
 (let ((?x243 (ite ocupav_1_1_1_1 1 0)))
 (let ((?x242 (ite ocupav_1_1_0_1 1 0)))
 (let ((?x244 (+ ?x242 ?x243)))
 (let ((?x200 (ite ocupav_1_0_1_1 1 0)))
 (let ((?x189 (ite ocupav_1_0_0_1 1 0)))
 (let ((?x241 (+ ?x189 ?x200)))
 (let ((?x246 (ite (and (distinct ?x241 ?x244) true) 1 0)))
 (let ((?x237 (ite ocupav_1_1_1_0 1 0)))
 (let ((?x236 (ite ocupav_1_1_0_0 1 0)))
 (let ((?x238 (+ ?x236 ?x237)))
 (let ((?x199 (ite ocupav_1_0_1_0 1 0)))
 (let ((?x186 (ite ocupav_1_0_0_0 1 0)))
 (let ((?x235 (+ ?x186 ?x199)))
 (let ((?x240 (ite (and (distinct ?x235 ?x238) true) 1 0)))
 (let (($x259 (and x_1_0 x_1_1)))
 (=> $x259 (> (+ (+ (+ ?x240 ?x246) ?x252) ?x258) 0))))))))))))))))))))))))))))))))
(assert
 (let ((?x103 (ite ocupaf_0_0_1_1 1 0)))
 (let ((?x110 (ite ocupaf_0_0_1_0 2 0)))
 (let ((?x113 (+ (+ (ite ocupaf_0_0_0_0 2 0) (ite ocupaf_0_0_0_1 1 0)) ?x110)))
 (let ((?x114 (+ ?x113 ?x103)))
 (= var_0_0_0 ?x114))))))
(assert
 (let ((?x131 (ite ocupaf_0_1_1_1 1 0)))
 (let ((?x170 (ite ocupaf_0_1_1_0 2 0)))
 (let ((?x173 (+ (+ (ite ocupaf_0_1_0_0 2 0) (ite ocupaf_0_1_0_1 1 0)) ?x170)))
 (let ((?x174 (+ ?x173 ?x131)))
 (= var_0_1_0 ?x174))))))
(assert
 (let ((?x202 (ite ocupaf_1_0_1_1 1 0)))
 (let ((?x218 (ite ocupaf_1_0_1_0 2 0)))
 (let ((?x361 (ite ocupav_1_0_1_1 var_0_1_0 0)))
 (let ((?x360 (ite ocupav_1_0_1_0 var_0_0_0 0)))
 (let ((?x192 (ite ocupaf_1_0_0_1 1 0)))
 (let ((?x190 (ite ocupaf_1_0_0_0 2 0)))
 (let ((?x355 (ite ocupav_1_0_0_1 var_0_1_0 0)))
 (let ((?x354 (ite ocupav_1_0_0_0 var_0_0_0 0)))
 (let ((?x368 (+ (+ (+ (+ (+ (+ (+ ?x354 ?x355) ?x190) ?x192) ?x360) ?x361) ?x218) ?x202)))
 (= var_1_0_0 ?x368)))))))))))
(assert
 (let ((?x255 (ite ocupaf_1_1_1_1 1 0)))
 (let ((?x329 (ite ocupaf_1_1_1_0 2 0)))
 (let ((?x374 (ite ocupav_1_1_1_1 var_0_1_0 0)))
 (let ((?x373 (ite ocupav_1_1_1_0 var_0_0_0 0)))
 (let ((?x254 (ite ocupaf_1_1_0_1 1 0)))
 (let ((?x307 (ite ocupaf_1_1_0_0 2 0)))
 (let ((?x372 (ite ocupav_1_1_0_1 var_0_1_0 0)))
 (let ((?x370 (ite ocupav_1_1_0_0 var_0_0_0 0)))
 (let ((?x383 (+ (+ (+ (+ (+ (+ (+ ?x370 ?x372) ?x307) ?x254) ?x373) ?x374) ?x329) ?x255)))
 (= var_1_1_0 ?x383)))))))))))
(assert
 (let (($x392 (not ocupamv_0_1_0)))
 (=> ocupamv_0_0_1 $x392)))
(assert
 (let (($x392 (not ocupamv_0_1_0)))
 (=> ocupamf_0_0 $x392)))
(assert
 (let (($x401 (not ocupamv_0_1_1)))
 (=> ocupamf_0_0 $x401)))
(assert
 (let (($x392 (not ocupamv_0_1_0)))
 (=> ocupamf_0_1 $x392)))
(assert
 (let (($x401 (not ocupamv_0_1_1)))
 (=> ocupamf_0_1 $x401)))
(assert
 (let (($x399 (not ocupamf_0_0)))
 (=> ocupamf_0_1 $x399)))
(assert
 (=> ocupamv_0_0_0 x_1_0))
(assert
 (=> ocupamv_0_0_1 x_1_1))
(assert
 (let ((?x420 (ite ocupamf_0_1 1 0)))
 (let ((?x419 (ite ocupamf_0_0 1 0)))
 (let ((?x417 (ite ocupamv_0_0_1 1 0)))
 (let ((?x414 (ite ocupamv_0_0_0 1 0)))
 (let ((?x421 (+ ?x414 ?x417)))
 (let ((?x423 (+ (+ ?x421 ?x419) ?x420)))
 (<= ?x423 1))))))))
(assert
 (let ((?x420 (ite ocupamf_0_1 1 0)))
 (let ((?x419 (ite ocupamf_0_0 1 0)))
 (let ((?x431 (+ (+ (ite ocupamv_0_1_0 1 0) (ite ocupamv_0_1_1 1 0)) ?x419)))
 (let ((?x432 (+ ?x431 ?x420)))
 (let ((?x417 (ite ocupamv_0_0_1 1 0)))
 (let ((?x414 (ite ocupamv_0_0_0 1 0)))
 (let ((?x421 (+ ?x414 ?x417)))
 (let ((?x423 (+ (+ ?x421 ?x419) ?x420)))
 (=> (= ?x423 0) (= ?x432 0)))))))))))
(assert
 (=> ocupamv_0_1_0 x_1_0))
(assert
 (=> ocupamv_0_1_1 x_1_1))
(assert
 (let ((?x420 (ite ocupamf_0_1 1 0)))
 (let ((?x419 (ite ocupamf_0_0 1 0)))
 (let ((?x431 (+ (+ (ite ocupamv_0_1_0 1 0) (ite ocupamv_0_1_1 1 0)) ?x419)))
 (let ((?x432 (+ ?x431 ?x420)))
 (<= ?x432 1))))))
(assert
 (let ((?x420 (ite ocupamf_0_1 1 0)))
 (let ((?x419 (ite ocupamf_0_0 1 0)))
 (let ((?x431 (+ (+ (ite ocupamv_0_1_0 1 0) (ite ocupamv_0_1_1 1 0)) ?x419)))
 (let ((?x432 (+ ?x431 ?x420)))
 (let ((?x417 (ite ocupamv_0_0_1 1 0)))
 (let ((?x414 (ite ocupamv_0_0_0 1 0)))
 (let ((?x421 (+ ?x414 ?x417)))
 (let ((?x423 (+ (+ ?x421 ?x419) ?x420)))
 (=> (= ?x423 0) (= ?x432 0)))))))))))
(assert
 (let ((?x420 (ite ocupamf_0_1 1 0)))
 (let ((?x418 (ite ocupamf_0_0 2 0)))
 (let ((?x428 (ite ocupamv_0_1_1 1 0)))
 (let ((?x427 (ite ocupamv_0_1_0 1 0)))
 (let ((?x417 (ite ocupamv_0_0_1 1 0)))
 (let ((?x414 (ite ocupamv_0_0_0 1 0)))
 (let ((?x421 (+ ?x414 ?x417)))
 (<= (+ (+ (+ (+ (+ (+ ?x421 ?x418) ?x420) ?x427) ?x428) ?x418) ?x420) 2)))))))))
(assert
 (let ((?x420 (ite ocupamf_0_1 1 0)))
 (let ((?x418 (ite ocupamf_0_0 2 0)))
 (let ((?x460 (ite ocupamv_0_1_1 var_1_1_0 0)))
 (let ((?x459 (ite ocupamv_0_1_0 var_1_0_0 0)))
 (let ((?x458 (ite ocupamv_0_0_1 var_1_1_0 0)))
 (let ((?x457 (ite ocupamv_0_0_0 var_1_0_0 0)))
 (let ((?x467 (+ (+ (+ (+ (+ (+ (+ ?x457 ?x458) ?x418) ?x420) ?x459) ?x460) ?x418) ?x420)))
 (= ?x467 3)))))))))
(assert
 (let (($x483 (or ocupav_1_0_0_0 ocupav_1_0_1_0)))
 (let ((?x200 (ite ocupav_1_0_1_1 1 0)))
 (let ((?x199 (ite ocupav_1_0_1_0 1 0)))
 (let ((?x189 (ite ocupav_1_0_0_1 1 0)))
 (let ((?x186 (ite ocupav_1_0_0_0 1 0)))
 (let ((?x193 (+ ?x186 ?x189)))
 (let ((?x481 (+ (+ (+ (+ (+ (+ ?x193 ?x186) ?x189) ?x199) ?x200) ?x199) ?x200)))
 (let (($x482 (> ?x481 1)))
 (=> (and $x482 $x483 x_0_0) cuenta_0_0))))))))))
(assert
 (let (($x508 (or ocupav_1_1_0_0 ocupav_1_1_1_0)))
 (let ((?x243 (ite ocupav_1_1_1_1 1 0)))
 (let ((?x237 (ite ocupav_1_1_1_0 1 0)))
 (let ((?x242 (ite ocupav_1_1_0_1 1 0)))
 (let ((?x236 (ite ocupav_1_1_0_0 1 0)))
 (let ((?x200 (ite ocupav_1_0_1_1 1 0)))
 (let ((?x199 (ite ocupav_1_0_1_0 1 0)))
 (let ((?x189 (ite ocupav_1_0_0_1 1 0)))
 (let ((?x186 (ite ocupav_1_0_0_0 1 0)))
 (let ((?x193 (+ ?x186 ?x189)))
 (let ((?x481 (+ (+ (+ (+ (+ (+ ?x193 ?x186) ?x189) ?x199) ?x200) ?x199) ?x200)))
 (let ((?x505 (+ (+ (+ (+ (+ (+ (+ ?x481 ?x236) ?x242) ?x236) ?x242) ?x237) ?x243) ?x237)))
 (let (($x507 (> (+ ?x505 ?x243) 1)))
 (=> (and $x507 $x508 x_0_0) cuenta_0_0)))))))))))))))
(assert
 (let (($x524 (or ocupav_1_0_0_1 ocupav_1_0_1_1)))
 (let ((?x200 (ite ocupav_1_0_1_1 1 0)))
 (let ((?x199 (ite ocupav_1_0_1_0 1 0)))
 (let ((?x189 (ite ocupav_1_0_0_1 1 0)))
 (let ((?x186 (ite ocupav_1_0_0_0 1 0)))
 (let ((?x193 (+ ?x186 ?x189)))
 (let ((?x481 (+ (+ (+ (+ (+ (+ ?x193 ?x186) ?x189) ?x199) ?x200) ?x199) ?x200)))
 (let (($x482 (> ?x481 1)))
 (=> (and $x482 $x524 x_0_1) cuenta_0_1))))))))))
(assert
 (let (($x530 (or ocupav_1_1_0_1 ocupav_1_1_1_1)))
 (let ((?x243 (ite ocupav_1_1_1_1 1 0)))
 (let ((?x237 (ite ocupav_1_1_1_0 1 0)))
 (let ((?x242 (ite ocupav_1_1_0_1 1 0)))
 (let ((?x236 (ite ocupav_1_1_0_0 1 0)))
 (let ((?x200 (ite ocupav_1_0_1_1 1 0)))
 (let ((?x199 (ite ocupav_1_0_1_0 1 0)))
 (let ((?x189 (ite ocupav_1_0_0_1 1 0)))
 (let ((?x186 (ite ocupav_1_0_0_0 1 0)))
 (let ((?x193 (+ ?x186 ?x189)))
 (let ((?x481 (+ (+ (+ (+ (+ (+ ?x193 ?x186) ?x189) ?x199) ?x200) ?x199) ?x200)))
 (let ((?x505 (+ (+ (+ (+ (+ (+ (+ ?x481 ?x236) ?x242) ?x236) ?x242) ?x237) ?x243) ?x237)))
 (let (($x507 (> (+ ?x505 ?x243) 1)))
 (=> (and $x507 $x530 x_0_1) cuenta_0_1)))))))))))))))
(assert
 (let (($x536 (and x_1_0 ocupamv_0_0_0)))
 (=> $x536 cuenta_1_0)))
(assert
 (let (($x540 (and x_1_0 ocupamv_0_0_1)))
 (=> $x540 cuenta_1_0)))
(assert
 (let (($x544 (and x_1_1 ocupamv_0_1_0)))
 (=> $x544 cuenta_1_1)))
(assert
 (let (($x548 (and x_1_1 ocupamv_0_1_1)))
 (=> $x548 cuenta_1_1)))
(assert
 (let ((?x555 (ite cuenta_1_1 1 0)))
(let ((?x554 (ite cuenta_1_0 1 0)))
(let ((?x557 (+ (+ (ite cuenta_0_0 1 0) (ite cuenta_0_1 1 0)) ?x554)))
(<= (+ ?x557 ?x555) 3)))))
(check-sat)
